c CNF file corresponding to a (partial) station packing problem.
p cnf 3078 229
1 2 3 4 5 6 7 8 9 10 11 12 13 14 0
-1 -2 0
-1 -3 0
-1 -4 0
-1 -5 0
-1 -6 0
-1 -7 0
-1 -8 0
-1 -9 0
-1 -10 0
-1 -11 0
-1 -12 0
-1 -13 0
-1 -14 0
-2 -3 0
-2 -4 0
-2 -5 0
-2 -6 0
-2 -7 0
-2 -8 0
-2 -9 0
-2 -10 0
-2 -11 0
-2 -12 0
-2 -13 0
-2 -14 0
-3 -4 0
-3 -5 0
-3 -6 0
-3 -7 0
-3 -8 0
-3 -9 0
-3 -10 0
-3 -11 0
-3 -12 0
-3 -13 0
-3 -14 0
-4 -5 0
-4 -6 0
-4 -7 0
-4 -8 0
-4 -9 0
-4 -10 0
-4 -11 0
-4 -12 0
-4 -13 0
-4 -14 0
-5 -6 0
-5 -7 0
-5 -8 0
-5 -9 0
-5 -10 0
-5 -11 0
-5 -12 0
-5 -13 0
-5 -14 0
-6 -7 0
-6 -8 0
-6 -9 0
-6 -10 0
-6 -11 0
-6 -12 0
-6 -13 0
-6 -14 0
-7 -8 0
-7 -9 0
-7 -10 0
-7 -11 0
-7 -12 0
-7 -13 0
-7 -14 0
-8 -9 0
-8 -10 0
-8 -11 0
-8 -12 0
-8 -13 0
-8 -14 0
-9 -10 0
-9 -11 0
-9 -12 0
-9 -13 0
-9 -14 0
-10 -11 0
-10 -12 0
-10 -13 0
-10 -14 0
-11 -12 0
-11 -13 0
-11 -14 0
-12 -13 0
-12 -14 0
-13 -14 0
3062 3063 3064 3065 3066 3067 3068 3069 3070 3071 3072 3073 3074 3075 3076 3077 3078 0
-3062 -3063 0
-3062 -3064 0
-3062 -3065 0
-3062 -3066 0
-3062 -3067 0
-3062 -3068 0
-3062 -3069 0
-3062 -3070 0
-3062 -3071 0
-3062 -3072 0
-3062 -3073 0
-3062 -3074 0
-3062 -3075 0
-3062 -3076 0
-3062 -3077 0
-3062 -3078 0
-3063 -3064 0
-3063 -3065 0
-3063 -3066 0
-3063 -3067 0
-3063 -3068 0
-3063 -3069 0
-3063 -3070 0
-3063 -3071 0
-3063 -3072 0
-3063 -3073 0
-3063 -3074 0
-3063 -3075 0
-3063 -3076 0
-3063 -3077 0
-3063 -3078 0
-3064 -3065 0
-3064 -3066 0
-3064 -3067 0
-3064 -3068 0
-3064 -3069 0
-3064 -3070 0
-3064 -3071 0
-3064 -3072 0
-3064 -3073 0
-3064 -3074 0
-3064 -3075 0
-3064 -3076 0
-3064 -3077 0
-3064 -3078 0
-3065 -3066 0
-3065 -3067 0
-3065 -3068 0
-3065 -3069 0
-3065 -3070 0
-3065 -3071 0
-3065 -3072 0
-3065 -3073 0
-3065 -3074 0
-3065 -3075 0
-3065 -3076 0
-3065 -3077 0
-3065 -3078 0
-3066 -3067 0
-3066 -3068 0
-3066 -3069 0
-3066 -3070 0
-3066 -3071 0
-3066 -3072 0
-3066 -3073 0
-3066 -3074 0
-3066 -3075 0
-3066 -3076 0
-3066 -3077 0
-3066 -3078 0
-3067 -3068 0
-3067 -3069 0
-3067 -3070 0
-3067 -3071 0
-3067 -3072 0
-3067 -3073 0
-3067 -3074 0
-3067 -3075 0
-3067 -3076 0
-3067 -3077 0
-3067 -3078 0
-3068 -3069 0
-3068 -3070 0
-3068 -3071 0
-3068 -3072 0
-3068 -3073 0
-3068 -3074 0
-3068 -3075 0
-3068 -3076 0
-3068 -3077 0
-3068 -3078 0
-3069 -3070 0
-3069 -3071 0
-3069 -3072 0
-3069 -3073 0
-3069 -3074 0
-3069 -3075 0
-3069 -3076 0
-3069 -3077 0
-3069 -3078 0
-3070 -3071 0
-3070 -3072 0
-3070 -3073 0
-3070 -3074 0
-3070 -3075 0
-3070 -3076 0
-3070 -3077 0
-3070 -3078 0
-3071 -3072 0
-3071 -3073 0
-3071 -3074 0
-3071 -3075 0
-3071 -3076 0
-3071 -3077 0
-3071 -3078 0
-3072 -3073 0
-3072 -3074 0
-3072 -3075 0
-3072 -3076 0
-3072 -3077 0
-3072 -3078 0
-3073 -3074 0
-3073 -3075 0
-3073 -3076 0
-3073 -3077 0
-3073 -3078 0
-3074 -3075 0
-3074 -3076 0
-3074 -3077 0
-3074 -3078 0
-3075 -3076 0
-3075 -3077 0
-3075 -3078 0
-3076 -3077 0
-3076 -3078 0
-3077 -3078 0
